c description: Tseitin formula on , with odd charge
c generator: CNFgen (0.9.0)
c copyright: (C) 2012-2020 Massimo Lauria <massimo.lauria@uniroma1.it>
c url: https://massimolauria.net/cnfgen
c
p cnf 20 147
1 2 3 4 5 6 7 0
1 2 3 4 5 -6 -7 0
1 2 3 4 -5 6 -7 0
1 2 3 4 -5 -6 7 0
1 2 3 -4 5 6 -7 0
1 2 3 -4 5 -6 7 0
1 2 3 -4 -5 6 7 0
1 2 3 -4 -5 -6 -7 0
1 2 -3 4 5 6 -7 0
1 2 -3 4 5 -6 7 0
1 2 -3 4 -5 6 7 0
1 2 -3 4 -5 -6 -7 0
1 2 -3 -4 5 6 7 0
1 2 -3 -4 5 -6 -7 0
1 2 -3 -4 -5 6 -7 0
1 2 -3 -4 -5 -6 7 0
1 -2 3 4 5 6 -7 0
1 -2 3 4 5 -6 7 0
1 -2 3 4 -5 6 7 0
1 -2 3 4 -5 -6 -7 0
1 -2 3 -4 5 6 7 0
1 -2 3 -4 5 -6 -7 0
1 -2 3 -4 -5 6 -7 0
1 -2 3 -4 -5 -6 7 0
1 -2 -3 4 5 6 7 0
1 -2 -3 4 5 -6 -7 0
1 -2 -3 4 -5 6 -7 0
1 -2 -3 4 -5 -6 7 0
1 -2 -3 -4 5 6 -7 0
1 -2 -3 -4 5 -6 7 0
1 -2 -3 -4 -5 6 7 0
1 -2 -3 -4 -5 -6 -7 0
-1 2 3 4 5 6 -7 0
-1 2 3 4 5 -6 7 0
-1 2 3 4 -5 6 7 0
-1 2 3 4 -5 -6 -7 0
-1 2 3 -4 5 6 7 0
-1 2 3 -4 5 -6 -7 0
-1 2 3 -4 -5 6 -7 0
-1 2 3 -4 -5 -6 7 0
-1 2 -3 4 5 6 7 0
-1 2 -3 4 5 -6 -7 0
-1 2 -3 4 -5 6 -7 0
-1 2 -3 4 -5 -6 7 0
-1 2 -3 -4 5 6 -7 0
-1 2 -3 -4 5 -6 7 0
-1 2 -3 -4 -5 6 7 0
-1 2 -3 -4 -5 -6 -7 0
-1 -2 3 4 5 6 7 0
-1 -2 3 4 5 -6 -7 0
-1 -2 3 4 -5 6 -7 0
-1 -2 3 4 -5 -6 7 0
-1 -2 3 -4 5 6 -7 0
-1 -2 3 -4 5 -6 7 0
-1 -2 3 -4 -5 6 7 0
-1 -2 3 -4 -5 -6 -7 0
-1 -2 -3 4 5 6 -7 0
-1 -2 -3 4 5 -6 7 0
-1 -2 -3 4 -5 6 7 0
-1 -2 -3 4 -5 -6 -7 0
-1 -2 -3 -4 5 6 7 0
-1 -2 -3 -4 5 -6 -7 0
-1 -2 -3 -4 -5 6 -7 0
-1 -2 -3 -4 -5 -6 7 0
-8 0
1 -9 0
-1 9 0
2 10 -11 0
2 -10 11 0
-2 10 11 0
-2 -10 -11 0
3 10 12 13 -14 0
3 10 12 -13 14 0
3 10 -12 13 14 0
3 10 -12 -13 -14 0
3 -10 12 13 14 0
3 -10 12 -13 -14 0
3 -10 -12 13 -14 0
3 -10 -12 -13 14 0
-3 10 12 13 14 0
-3 10 12 -13 -14 0
-3 10 -12 13 -14 0
-3 10 -12 -13 14 0
-3 -10 12 13 -14 0
-3 -10 12 -13 14 0
-3 -10 -12 13 14 0
-3 -10 -12 -13 -14 0
4 8 12 15 -16 0
4 8 12 -15 16 0
4 8 -12 15 16 0
4 8 -12 -15 -16 0
4 -8 12 15 16 0
4 -8 12 -15 -16 0
4 -8 -12 15 -16 0
4 -8 -12 -15 16 0
-4 8 12 15 16 0
-4 8 12 -15 -16 0
-4 8 -12 15 -16 0
-4 8 -12 -15 16 0
-4 -8 12 15 -16 0
-4 -8 12 -15 16 0
-4 -8 -12 15 16 0
-4 -8 -12 -15 -16 0
5 9 13 17 -18 0
5 9 13 -17 18 0
5 9 -13 17 18 0
5 9 -13 -17 -18 0
5 -9 13 17 18 0
5 -9 13 -17 -18 0
5 -9 -13 17 -18 0
5 -9 -13 -17 18 0
-5 9 13 17 18 0
-5 9 13 -17 -18 0
-5 9 -13 17 -18 0
-5 9 -13 -17 18 0
-5 -9 13 17 -18 0
-5 -9 13 -17 18 0
-5 -9 -13 17 18 0
-5 -9 -13 -17 -18 0
14 15 17 -19 0
14 15 -17 19 0
14 -15 17 19 0
14 -15 -17 -19 0
-14 15 17 19 0
-14 15 -17 -19 0
-14 -15 17 -19 0
-14 -15 -17 19 0
6 16 18 19 -20 0
6 16 18 -19 20 0
6 16 -18 19 20 0
6 16 -18 -19 -20 0
6 -16 18 19 20 0
6 -16 18 -19 -20 0
6 -16 -18 19 -20 0
6 -16 -18 -19 20 0
-6 16 18 19 20 0
-6 16 18 -19 -20 0
-6 16 -18 19 -20 0
-6 16 -18 -19 20 0
-6 -16 18 19 -20 0
-6 -16 18 -19 20 0
-6 -16 -18 19 20 0
-6 -16 -18 -19 -20 0
7 11 -20 0
7 -11 20 0
-7 11 20 0
-7 -11 -20 0